c Result of efficient AIG-to-CNF conversion using package CNF
p cnf 416 1409
2 3 -254 0
-2 -3 0
-2 254 0
3 411 195 -205 0
3 -411 -4 195 0
-3 -195 0
-3 -411 4 0
-3 411 205 0
4 -5 -192 0
4 -5 142 0
4 -5 -185 0
-4 5 0
-4 -142 185 192 0
-5 412 6 125 135 0
5 -135 0
5 -125 0
5 -412 0
5 -6 0
6 413 -7 0
6 -413 -88 0
-6 -413 88 0
-6 413 7 0
7 414 -8 0
7 -414 -61 0
-7 -414 61 0
-7 414 8 0
8 415 -9 0
8 -415 -40 0
-8 -415 40 0
-8 415 9 0
9 379 -10 25 0
9 -379 25 -36 0
-9 -25 0
-9 -379 36 0
-9 379 10 0
10 380 -11 0
10 -380 -18 0
-10 -380 18 0
-10 380 11 0
11 381 -12 0
11 -381 -15 0
-11 -381 15 0
-11 381 12 0
12 382 -13 0
12 -382 -14 0
-12 -382 14 0
-12 382 13 0
13 -383 -401 0
13 383 -402 0
-13 383 402 0
-13 -383 401 0
14 -383 -399 0
14 383 -400 0
-14 383 400 0
-14 -383 399 0
15 382 -16 0
15 -382 -17 0
-15 -382 17 0
-15 382 16 0
16 -383 -397 0
16 383 -398 0
-16 383 398 0
-16 -383 397 0
17 -383 -395 0
17 383 -396 0
-17 383 396 0
-17 -383 395 0
18 381 -19 0
18 -381 -22 0
-18 -381 22 0
-18 381 19 0
19 382 -20 0
19 -382 -21 0
-19 -382 21 0
-19 382 20 0
20 -383 -393 0
20 383 -394 0
-20 383 394 0
-20 -383 393 0
21 -383 -391 0
21 383 -392 0
-21 383 392 0
-21 -383 391 0
22 382 -23 0
22 -382 -24 0
-22 -382 24 0
-22 382 23 0
23 -383 -389 0
23 383 -390 0
-23 383 390 0
-23 -383 389 0
24 -383 -387 0
24 383 -388 0
-24 383 388 0
-24 -383 387 0
-25 26 32 34 35 0
25 -35 0
25 -26 0
25 -34 0
25 -32 0
-26 376 377 27 29 0
26 -376 0
26 -29 0
26 -27 0
26 -377 0
-27 368 374 375 28 0
27 -28 0
27 -375 0
27 -368 0
27 -374 0
-28 372 373 378 0
28 -372 0
28 -378 0
28 -373 0
-29 364 365 30 31 0
29 -364 0
29 -31 0
29 -30 0
29 -365 0
-30 369 370 371 0
30 -369 0
30 -371 0
30 -370 0
-31 360 361 366 367 0
31 -367 0
31 -366 0
31 -360 0
31 -361 0
-32 358 362 363 33 0
32 -33 0
32 -363 0
32 -358 0
32 -362 0
-33 356 357 0
33 -356 0
33 -357 0
-34 352 359 0
34 -352 0
34 -359 0
-35 353 354 355 0
35 -353 0
35 -355 0
35 -354 0
36 380 -37 0
-36 -380 0
-36 37 0
37 381 -38 0
-37 -381 0
-37 38 0
38 382 -39 0
38 -382 383 -384 0
-38 -382 -383 0
-38 382 39 0
-38 -382 384 0
39 -383 -385 0
39 383 -386 0
-39 383 386 0
-39 -383 385 0
40 -379 25 -56 0
40 379 25 -41 0
-40 -25 0
-40 -379 56 0
-40 379 41 0
41 380 -42 0
41 -380 -49 0
-41 -380 49 0
-41 380 42 0
42 381 -43 0
42 -381 -46 0
-42 -381 46 0
-42 381 43 0
43 382 -44 0
43 -382 -45 0
-43 -382 45 0
-43 382 44 0
44 -383 -402 0
44 383 -403 0
-44 383 403 0
-44 -383 402 0
45 -383 -400 0
45 383 -401 0
-45 383 401 0
-45 -383 400 0
46 382 -47 0
46 -382 -48 0
-46 -382 48 0
-46 382 47 0
47 -383 -398 0
47 383 -399 0
-47 383 399 0
-47 -383 398 0
48 -383 -396 0
48 383 -397 0
-48 383 397 0
-48 -383 396 0
49 381 -50 0
49 -381 -53 0
-49 -381 53 0
-49 381 50 0
50 382 -51 0
50 -382 -52 0
-50 -382 52 0
-50 382 51 0
51 -383 -394 0
51 383 -395 0
-51 383 395 0
-51 -383 394 0
52 -383 -392 0
52 383 -393 0
-52 383 393 0
-52 -383 392 0
53 382 -54 0
53 -382 -55 0
-53 -382 55 0
-53 382 54 0
54 -383 -390 0
54 383 -391 0
-54 383 391 0
-54 -383 390 0
55 -383 -388 0
55 383 -389 0
-55 383 389 0
-55 -383 388 0
56 380 -57 0
-56 -380 0
-56 57 0
57 381 -58 0
-57 -381 0
-57 58 0
58 382 -59 0
58 -382 -60 0
-58 -382 60 0
-58 382 59 0
59 -383 -386 0
59 383 -387 0
-59 383 387 0
-59 -383 386 0
60 -383 -384 0
60 383 -385 0
-60 383 385 0
-60 -383 384 0
61 415 -62 0
61 -415 -75 0
-61 -415 75 0
-61 415 62 0
62 -379 25 -71 0
62 379 25 -63 0
-62 -25 0
-62 -379 71 0
-62 379 63 0
63 380 -64 0
63 -380 -68 0
-63 -380 68 0
-63 380 64 0
64 381 -65 0
64 -381 -67 0
-64 -381 67 0
-64 381 65 0
65 -382 -13 0
65 382 -66 0
-65 382 66 0
-65 -382 13 0
66 -383 -403 0
66 383 -404 0
-66 383 404 0
-66 -383 403 0
67 382 -14 0
67 -382 -16 0
-67 -382 16 0
-67 382 14 0
68 381 -69 0
68 -381 -70 0
-68 -381 70 0
-68 381 69 0
69 382 -17 0
69 -382 -20 0
-69 -382 20 0
-69 382 17 0
70 382 -21 0
70 -382 -23 0
-70 -382 23 0
-70 382 21 0
71 380 -72 0
-71 -380 0
-71 72 0
72 381 -73 0
72 -381 -74 0
-72 -381 74 0
-72 381 73 0
73 382 -24 0
73 -382 -39 0
-73 -382 39 0
-73 382 24 0
74 382 383 -384 0
-74 384 0
-74 -383 0
-74 -382 0
75 -379 25 -84 0
75 379 25 -76 0
-75 -25 0
-75 -379 84 0
-75 379 76 0
76 380 -77 0
76 -380 -81 0
-76 -380 81 0
-76 380 77 0
77 381 -78 0
77 -381 -80 0
-77 -381 80 0
-77 381 78 0
78 -382 -44 0
78 382 -79 0
-78 382 79 0
-78 -382 44 0
79 -383 -404 0
79 383 -405 0
-79 383 405 0
-79 -383 404 0
80 382 -45 0
80 -382 -47 0
-80 -382 47 0
-80 382 45 0
81 381 -82 0
81 -381 -83 0
-81 -381 83 0
-81 381 82 0
82 382 -48 0
82 -382 -51 0
-82 -382 51 0
-82 382 48 0
83 382 -52 0
83 -382 -54 0
-83 -382 54 0
-83 382 52 0
84 380 -85 0
-84 -380 0
-84 85 0
85 381 -86 0
85 -381 -87 0
-85 -381 87 0
-85 381 86 0
86 382 -55 0
86 -382 -59 0
-86 -382 59 0
-86 382 55 0
87 382 383 -385 0
87 382 -383 -384 0
-87 -382 0
-87 -383 384 0
-87 383 385 0
88 414 -89 0
88 -414 -106 0
-88 -414 106 0
-88 414 89 0
89 415 -90 0
89 -415 -98 0
-89 -415 98 0
-89 415 90 0
90 -379 25 -96 0
90 379 25 -91 0
-90 -25 0
-90 -379 96 0
-90 379 91 0
91 380 -92 0
91 -380 -95 0
-91 -380 95 0
-91 380 92 0
92 -381 -12 0
92 381 -93 0
-92 381 93 0
-92 -381 12 0
93 -382 -66 0
93 382 -94 0
-93 382 94 0
-93 -382 66 0
94 -383 -405 0
94 383 -406 0
-94 383 406 0
-94 -383 405 0
95 381 -15 0
95 -381 -19 0
-95 -381 19 0
-95 381 15 0
96 380 -97 0
-96 -380 0
-96 97 0
97 381 -22 0
97 -381 -38 0
-97 -381 38 0
-97 381 22 0
98 -379 25 -104 0
98 379 25 -99 0
-98 -25 0
-98 -379 104 0
-98 379 99 0
99 380 -100 0
99 -380 -103 0
-99 -380 103 0
-99 380 100 0
100 -381 -43 0
100 381 -101 0
-100 381 101 0
-100 -381 43 0
101 -382 -79 0
101 382 -102 0
-101 382 102 0
-101 -382 79 0
102 -383 -406 0
102 383 -407 0
-102 383 407 0
-102 -383 406 0
103 381 -46 0
103 -381 -50 0
-103 -381 50 0
-103 381 46 0
104 380 -105 0
-104 -380 0
-104 105 0
105 381 -53 0
105 -381 -58 0
-105 -381 58 0
-105 381 53 0
106 415 -107 0
106 -415 -116 0
-106 -415 116 0
-106 415 107 0
107 -379 25 -113 0
107 379 25 -108 0
-107 -25 0
-107 -379 113 0
-107 379 108 0
-108 380 109 0
-108 -380 112 0
108 -380 -112 0
108 380 -109 0
-109 381 110 0
-109 -381 65 0
109 -381 -65 0
109 381 -110 0
110 -382 -94 0
110 382 -111 0
-110 382 111 0
-110 -382 94 0
111 -383 -407 0
111 383 -408 0
-111 383 408 0
-111 -383 407 0
112 381 -67 0
112 -381 -69 0
-112 -381 69 0
-112 381 67 0
113 380 -114 0
113 -380 -115 0
-113 -380 115 0
-113 380 114 0
114 381 -70 0
114 -381 -73 0
-114 -381 73 0
-114 381 70 0
115 381 382 383 -384 0
-115 384 0
-115 -383 0
-115 -381 0
-115 -382 0
116 -379 25 -122 0
116 379 25 -117 0
-116 -25 0
-116 -379 122 0
-116 379 117 0
-117 380 118 0
-117 -380 121 0
117 -380 -121 0
117 380 -118 0
-118 381 119 0
-118 -381 78 0
118 -381 -78 0
118 381 -119 0
119 -382 -102 0
119 382 -120 0
-119 382 120 0
-119 -382 102 0
120 -383 -408 0
120 383 -409 0
-120 383 409 0
-120 -383 408 0
121 381 -80 0
121 -381 -82 0
-121 -381 82 0
-121 381 80 0
122 380 -123 0
122 -380 -124 0
-122 -380 124 0
-122 380 123 0
123 381 -83 0
123 -381 -86 0
-123 -381 86 0
-123 381 83 0
124 381 -87 0
-124 -381 0
-124 87 0
125 413 -126 0
125 -413 -132 0
-125 -413 132 0
-125 413 126 0
126 414 -127 0
126 -414 -131 0
-126 -414 131 0
-126 414 127 0
127 -415 -9 0
127 415 -128 0
-127 415 128 0
-127 -415 9 0
128 -379 25 -130 0
128 379 25 -129 0
-128 -25 0
-128 -379 130 0
-128 379 129 0
129 380 -121 0
129 -380 -123 0
-129 -380 123 0
-129 380 121 0
130 380 -124 0
-130 -380 0
-130 124 0
131 415 -40 0
131 -415 -62 0
-131 -415 62 0
-131 415 40 0
132 414 -133 0
132 -414 -134 0
-132 -414 134 0
-132 414 133 0
133 415 -75 0
133 -415 -90 0
-133 -415 90 0
-133 415 75 0
134 415 -98 0
134 -415 -107 0
-134 -415 107 0
-134 415 98 0
135 413 -136 0
135 -413 -141 0
-135 -413 141 0
-135 413 136 0
136 -414 -8 0
136 414 -137 0
-136 414 137 0
-136 -414 8 0
137 -415 -128 0
137 415 -138 0
-137 415 138 0
-137 -415 128 0
138 -379 25 -140 0
138 379 25 -139 0
-138 -25 0
-138 -379 140 0
-138 379 139 0
139 380 -112 0
139 -380 -114 0
-139 -380 114 0
-139 380 112 0
140 380 -115 0
-140 -380 0
-140 115 0
141 414 -61 0
141 -414 -89 0
-141 -414 89 0
-141 414 61 0
142 -412 143 0
-142 412 0
-142 -143 0
143 413 -144 0
143 -413 -171 0
-143 -413 171 0
-143 413 144 0
144 414 -145 0
144 -414 -158 0
-144 -414 158 0
-144 414 145 0
145 415 -146 0
145 -415 -152 0
-145 -415 152 0
-145 415 146 0
146 -379 25 -151 0
146 379 25 -147 0
-146 -25 0
-146 -379 151 0
-146 379 147 0
-147 -380 11 0
-147 380 148 0
147 -380 -11 0
147 380 -148 0
-148 381 149 0
-148 -381 93 0
148 -381 -93 0
148 381 -149 0
149 -382 -111 0
149 382 -150 0
-149 382 150 0
-149 -382 111 0
150 -383 -409 0
150 383 -410 0
-150 383 410 0
-150 -383 409 0
151 380 -18 0
151 -380 -37 0
-151 -380 37 0
-151 380 18 0
152 -379 25 -157 0
152 379 25 -153 0
-152 -25 0
-152 -379 157 0
-152 379 153 0
-153 -380 42 0
-153 380 154 0
153 -380 -42 0
153 380 -154 0
-154 381 155 0
-154 -381 101 0
154 -381 -101 0
154 381 -155 0
155 -382 -120 0
155 382 -156 0
-155 382 156 0
-155 -382 120 0
156 -383 -410 0
156 383 -411 0
-156 383 411 0
-156 -383 410 0
157 380 -49 0
157 -380 -57 0
-157 -380 57 0
-157 380 49 0
158 415 -159 0
158 -415 -165 0
-158 -415 165 0
-158 415 159 0
159 -379 25 -164 0
159 379 25 -160 0
-159 -25 0
-159 -379 164 0
-159 379 160 0
-160 -380 64 0
-160 380 161 0
160 -380 -64 0
160 380 -161 0
-161 -381 110 0
-161 381 162 0
161 -381 -110 0
161 381 -162 0
-162 382 163 0
-162 -382 150 0
162 -382 -150 0
162 382 -163 0
163 -383 -411 0
163 383 -412 0
-163 383 412 0
-163 -383 411 0
164 380 -68 0
164 -380 -72 0
-164 -380 72 0
-164 380 68 0
165 -379 25 -170 0
165 379 25 -166 0
-165 -25 0
-165 -379 170 0
-165 379 166 0
-166 -380 77 0
-166 380 167 0
166 -380 -77 0
166 380 -167 0
-167 -381 119 0
-167 381 168 0
167 -381 -119 0
167 381 -168 0
-168 382 169 0
-168 -382 156 0
168 -382 -156 0
168 382 -169 0
169 -383 -412 0
169 383 -413 0
-169 383 413 0
-169 -383 412 0
170 380 -81 0
170 -380 -85 0
-170 -380 85 0
-170 380 81 0
171 414 -172 0
-171 -414 0
-171 172 0
172 415 -173 0
172 -415 -179 0
-172 -415 179 0
-172 415 173 0
173 -379 25 -178 0
173 379 25 -174 0
-173 -25 0
-173 -379 178 0
-173 379 174 0
-174 -380 92 0
-174 380 175 0
174 -380 -92 0
174 380 -175 0
-175 -381 149 0
-175 381 176 0
175 -381 -149 0
175 381 -176 0
-176 382 177 0
-176 -382 163 0
176 -382 -163 0
176 382 -177 0
177 -383 -413 0
177 383 -414 0
-177 383 414 0
-177 -383 413 0
178 380 -95 0
178 -380 -97 0
-178 -380 97 0
-178 380 95 0
179 -379 25 -184 0
179 379 25 -180 0
-179 -25 0
-179 -379 184 0
-179 379 180 0
-180 -380 100 0
-180 380 181 0
180 -380 -100 0
180 380 -181 0
-181 -381 155 0
-181 381 182 0
181 -381 -155 0
181 381 -182 0
-182 382 183 0
-182 -382 169 0
182 -382 -169 0
182 382 -183 0
183 -383 -414 0
183 383 -415 0
-183 383 415 0
-183 -383 414 0
184 380 -103 0
184 -380 -105 0
-184 -380 105 0
-184 380 103 0
185 413 -186 0
185 -413 -189 0
-185 -413 189 0
-185 413 186 0
186 414 -187 0
186 -414 -188 0
-186 -414 188 0
-186 414 187 0
187 415 -116 0
187 -415 -146 0
-187 -415 146 0
-187 415 116 0
188 415 -152 0
188 -415 -159 0
-188 -415 159 0
-188 415 152 0
189 414 -190 0
189 -414 -191 0
-189 -414 191 0
-189 414 190 0
190 415 -165 0
190 -415 -173 0
-190 -415 173 0
-190 415 165 0
191 415 -179 0
-191 -415 0
-191 179 0
192 413 -193 0
192 -413 -194 0
-192 -413 194 0
-192 413 193 0
193 414 -106 0
193 -414 -145 0
-193 -414 145 0
-193 414 106 0
194 414 -158 0
194 -414 -172 0
-194 -414 172 0
-194 414 158 0
-195 399 196 201 203 0
195 -399 0
195 -203 0
195 -201 0
195 -196 0
-196 385 386 197 198 0
196 -385 0
196 -198 0
196 -197 0
196 -386 0
-197 387 388 389 405 0
197 -405 0
197 -389 0
197 -387 0
197 -388 0
-198 406 408 199 200 0
198 -406 0
198 -200 0
198 -199 0
198 -408 0
-199 402 403 404 407 0
199 -407 0
199 -404 0
199 -402 0
199 -403 0
-200 400 409 410 0
200 -400 0
200 -410 0
200 -409 0
-201 395 396 398 202 0
201 -202 0
201 -398 0
201 -395 0
201 -396 0
-202 390 391 0
202 -390 0
202 -391 0
-203 384 392 204 0
203 -204 0
203 -392 0
203 -384 0
-204 393 394 397 401 0
204 -401 0
204 -397 0
204 -393 0
204 -394 0
205 -412 -231 0
205 412 -206 0
205 -412 -251 0
-205 412 206 0
-205 -412 231 251 0
-206 -413 207 222 0
-206 413 215 222 0
206 -222 0
206 413 -215 0
206 -413 -207 0
207 414 -208 0
207 -414 -212 0
-207 -414 212 0
-207 414 208 0
208 415 -209 0
208 -415 -211 0
-208 -415 211 0
-208 415 209 0
209 -96 210 0
-209 96 0
-209 -210 0
-210 379 25 0
210 -379 0
210 -25 0
211 -104 210 0
-211 104 0
-211 -210 0
212 415 -213 0
212 -415 -214 0
-212 -415 214 0
-212 415 213 0
213 -113 210 0
-213 113 0
-213 -210 0
214 -122 210 0
-214 122 0
-214 -210 0
-215 -414 219 0
-215 414 216 0
215 414 -216 0
215 -414 -219 0
216 415 -217 0
216 -415 -218 0
-216 -415 218 0
-216 415 217 0
217 -36 210 0
-217 36 0
-217 -210 0
218 -56 210 0
-218 56 0
-218 -210 0
219 415 -220 0
219 -415 -221 0
-219 -415 221 0
-219 415 220 0
220 -71 210 0
-220 71 0
-220 -210 0
221 -84 210 0
-221 84 0
-221 -210 0
222 -413 -227 0
222 413 -223 0
222 -413 -228 0
-222 413 223 0
-222 -413 227 228 0
-223 414 225 0
-223 -414 216 224 0
223 -414 -216 0
223 414 -225 0
223 -414 -224 0
224 415 -218 0
224 -415 -220 0
-224 -415 220 0
-224 415 218 0
-225 -210 0
-225 415 226 0
-225 36 226 0
225 210 -226 0
225 -415 -36 210 0
-226 130 140 0
-226 -415 130 0
226 -130 0
226 415 -140 0
227 -414 -208 0
227 414 -219 0
-227 414 219 0
-227 -414 208 0
228 414 -229 0
228 -414 -230 0
-228 -414 230 0
-228 414 229 0
229 -415 -209 0
229 415 -221 0
-229 415 221 0
-229 -415 209 0
230 415 -211 0
230 -415 -213 0
-230 -415 213 0
-230 415 211 0
-231 232 244 0
231 -232 0
231 -244 0
232 413 -233 0
232 -413 -237 0
-232 -413 237 0
-232 413 233 0
233 414 -212 0
233 -414 -234 0
-233 -414 234 0
-233 414 212 0
234 415 -235 0
234 -415 -236 0
-234 -415 236 0
-234 415 235 0
235 -151 210 0
-235 151 0
-235 -210 0
236 -157 210 0
-236 157 0
-236 -210 0
237 414 -238 0
237 -414 -241 0
-237 -414 241 0
-237 414 238 0
238 415 -239 0
238 -415 -240 0
-238 -415 240 0
-238 415 239 0
239 -164 210 0
-239 164 0
-239 -210 0
240 -170 210 0
-240 170 0
-240 -210 0
241 415 -242 0
241 -415 -243 0
-241 -415 243 0
-241 415 242 0
242 -178 210 0
-242 178 0
-242 -210 0
243 -184 210 0
-243 184 0
-243 -210 0
244 413 -245 0
244 -413 -248 0
-244 -413 248 0
-244 413 245 0
245 414 -246 0
245 -414 -247 0
-245 -414 247 0
-245 414 246 0
246 415 -214 0
246 -415 -235 0
-246 -415 235 0
-246 415 214 0
247 415 -236 0
247 -415 -239 0
-247 -415 239 0
-247 415 236 0
248 414 -249 0
248 -414 -250 0
-248 -414 250 0
-248 414 249 0
249 415 -240 0
249 -415 -242 0
-249 -415 242 0
-249 415 240 0
250 -415 -138 0
250 415 -243 0
-250 415 243 0
-250 -415 138 0
251 413 -252 0
251 -413 -253 0
-251 -413 253 0
-251 413 252 0
252 414 -234 0
252 -414 -238 0
-252 -414 238 0
-252 414 234 0
253 -414 -137 0
253 414 -241 0
-253 414 241 0
-253 -414 137 0
-254 255 274 347 0
-254 255 -259 274 0
254 -255 0
254 -274 0
254 259 -347 0
255 256 -257 0
-255 -256 0
-255 257 0
-256 411 195 0
256 -411 0
256 -195 0
257 412 -258 0
-257 -412 0
-257 258 0
258 413 -189 0
-258 -413 0
-258 189 0
259 411 195 -267 0
259 -411 195 -260 0
-259 -195 0
-259 411 267 0
-259 -411 260 0
260 412 -261 0
260 -412 -264 0
-260 -412 264 0
-260 412 261 0
261 413 -262 0
261 -413 -263 0
-261 -413 263 0
-261 413 262 0
262 414 -131 0
262 -414 -133 0
-262 -414 133 0
-262 414 131 0
263 414 -134 0
263 -414 -187 0
-263 -414 187 0
-263 414 134 0
264 413 -265 0
264 -413 -266 0
-264 -413 266 0
-264 413 265 0
265 414 -188 0
265 -414 -190 0
-265 -414 190 0
-265 414 188 0
266 414 -191 0
-266 -414 0
-266 191 0
-267 -412 268 0
-267 412 271 0
267 -412 -268 0
267 412 -271 0
268 413 -269 0
268 -413 -270 0
-268 -413 270 0
-268 413 269 0
269 414 -247 0
269 -414 -249 0
-269 -414 249 0
-269 414 247 0
270 -414 -127 0
270 414 -250 0
-270 414 250 0
-270 -414 127 0
-271 -413 272 0
-271 413 273 0
271 -413 -272 0
271 413 -273 0
272 414 -230 0
272 -414 -246 0
-272 -414 246 0
-272 414 230 0
-273 -414 229 0
-273 414 224 0
273 414 -224 0
273 -414 -229 0
274 -3 -275 0
274 -275 339 0
274 -259 -275 0
-274 275 0
-274 3 259 -339 0
275 -381 276 259 336 0
-275 -276 0
-275 -336 0
-275 381 0
-275 -259 0
-276 277 280 286 293 0
276 -277 0
276 -293 0
276 -286 0
276 -280 0
277 -411 195 -279 0
277 411 195 -278 0
-277 -195 0
-277 -411 279 0
-277 411 278 0
-278 412 232 0
-278 -412 135 0
278 -412 -135 0
278 412 -232 0
279 412 -192 0
-279 -412 0
-279 192 0
280 411 195 -281 0
280 -411 195 -283 0
-280 -195 0
-280 -411 283 0
-280 411 281 0
281 -412 -6 0
281 412 -282 0
281 -412 -261 0
-281 412 282 0
-281 -412 6 261 0
-282 251 268 0
282 -251 0
282 -268 0
-283 284 285 0
283 -284 0
283 -285 0
284 412 -264 0
-284 -412 0
-284 264 0
285 412 -143 0
-285 -412 0
-285 143 0
-286 287 289 291 292 0
286 -292 0
286 -291 0
286 -287 0
286 -289 0
287 -192 -288 0
287 412 -288 0
-287 288 0
-287 -412 192 0
288 -135 256 0
288 -412 256 0
-288 -256 0
-288 412 135 0
289 256 -285 0
289 256 -290 0
-289 -256 0
-289 285 290 0
290 412 -185 0
-290 -412 0
-290 185 0
291 412 -125 256 0
291 -412 -185 256 0
-291 -256 0
-291 -412 185 0
-291 412 125 0
292 142 -288 0
-292 -142 0
-292 288 0
-293 294 324 331 332 0
293 -324 0
293 -332 0
293 -294 0
293 -331 0
-294 295 302 316 318 0
294 -302 0
294 -316 0
294 -295 0
294 -318 0
295 -411 195 -299 0
295 411 195 -296 0
-295 -195 0
-295 -411 299 0
-295 411 296 0
-296 412 297 0
-296 -412 298 0
296 -412 -298 0
296 412 -297 0
-297 413 272 0
-297 -413 269 0
297 -413 -269 0
297 413 -272 0
298 413 -270 0
298 -413 -262 0
-298 -413 262 0
-298 413 270 0
299 412 -300 0
299 -412 -301 0
-299 -412 301 0
-299 412 300 0
300 413 -263 0
300 -413 -265 0
-300 -413 265 0
-300 413 263 0
301 413 -266 0
-301 -413 0
-301 266 0
-302 -195 0
-302 303 310 0
302 195 -310 0
302 195 -303 0
-303 411 304 0
-303 -411 307 0
303 -411 -307 0
303 411 -304 0
-304 412 305 0
-304 -412 306 0
304 -412 -306 0
304 412 -305 0
-305 -413 252 0
-305 413 207 0
305 413 -207 0
305 -413 -252 0
306 -413 -7 0
306 413 -253 0
-306 413 253 0
-306 -413 7 0
307 412 -308 0
307 -412 -309 0
-307 -412 309 0
-307 412 308 0
308 413 -88 0
308 -413 -144 0
-308 -413 144 0
-308 413 88 0
309 413 -171 0
-309 -413 0
-309 171 0
-310 411 311 0
-310 -411 314 0
310 -411 -314 0
310 411 -311 0
-311 412 312 0
-311 -412 313 0
311 -412 -313 0
311 412 -312 0
-312 -413 245 0
-312 413 228 0
312 413 -228 0
312 -413 -245 0
313 -413 -126 0
313 413 -248 0
-313 413 248 0
-313 -413 126 0
314 -412 -258 0
314 412 -315 0
-314 412 315 0
-314 -412 258 0
315 413 -132 0
315 -413 -186 0
-315 -413 186 0
-315 413 132 0
316 411 195 -317 0
316 -411 195 -290 0
-316 -195 0
-316 411 317 0
-316 -411 290 0
-317 412 244 0
-317 -412 125 0
317 -412 -125 0
317 412 -244 0
-318 319 320 0
318 -319 0
318 -320 0
319 256 -260 0
-319 -256 0
-319 260 0
320 256 -307 0
320 256 -321 0
320 256 -314 0
-320 -256 0
-320 307 314 321 0
321 412 -322 0
321 -412 -323 0
-321 -412 323 0
-321 412 322 0
322 413 -141 0
322 -413 -193 0
-322 -413 193 0
-322 413 141 0
323 413 -194 0
-323 -413 0
-323 194 0
-324 -195 0
-324 325 329 0
324 195 -329 0
324 195 -325 0
-325 411 326 0
-325 -411 328 0
325 -411 -328 0
325 411 -326 0
-326 412 327 0
-326 -412 322 0
326 -412 -322 0
326 412 -327 0
327 -413 -136 0
327 413 -237 0
-327 413 237 0
-327 -413 136 0
328 412 -323 0
-328 -412 0
-328 323 0
-329 -411 257 0
-329 411 330 0
329 -411 -257 0
329 411 -330 0
-330 -412 315 0
-330 412 313 0
330 412 -313 0
330 -412 -315 0
331 256 -279 0
331 256 -299 0
-331 -256 0
-331 279 299 0
332 411 195 -333 0
332 -411 195 -335 0
-332 -195 0
-332 -411 335 0
-332 411 333 0
333 -412 -300 0
333 412 -334 0
333 -412 -308 0
-333 412 334 0
-333 -412 300 308 0
-334 298 306 0
334 -298 0
334 -306 0
-335 -412 0
-335 301 309 0
335 412 -301 0
335 412 -309 0
336 411 195 -337 0
336 -411 195 -321 0
-336 -195 0
-336 411 337 0
-336 -411 321 0
-337 -412 327 0
-337 412 338 0
337 -412 -327 0
337 412 -338 0
-338 -413 233 0
-338 413 227 0
338 413 -227 0
338 -413 -233 0
339 -381 336 340 343 0
-339 -343 0
-339 381 0
-339 -340 0
-339 -336 0
-340 291 302 341 0
340 -341 0
340 -302 0
340 -291 0
-341 289 319 331 342 0
341 -342 0
341 -331 0
341 -289 0
341 -319 0
342 256 -284 0
-342 -256 0
-342 284 0
-343 292 320 344 346 0
343 -292 0
343 -346 0
343 -344 0
343 -320 0
-344 316 345 0
344 -316 0
344 -345 0
-345 277 295 0
345 -277 0
345 -295 0
-346 280 287 324 332 0
346 -280 0
346 -332 0
346 -324 0
346 -287 0
-347 -275 348 350 0
-347 339 348 350 0
347 -350 0
347 -348 0
347 275 -339 0
348 366 -382 -342 349 0
-348 -366 0
-348 -349 0
-348 342 0
-348 382 0
-349 276 336 0
349 -276 0
349 -336 0
350 375 -383 255 -351 0
-350 383 0
-350 -255 0
-350 -375 0
-350 351 0
351 256 -328 0
-351 -256 0
-351 328 0
-416 0
2 0

